language ESSENCE' 1.0

letting fixed be 
[
    [0,9,3,8,2,4,5,6,0],
    [0,8,5,6,0,0,0,0,2],
    [2,0,6,0,7,5,0,0,8],
    [3,2,1,7,6,9,8,4,5],
    [0,0,0,2,5,8,3,0,0],
    [5,7,8,0,4,0,2,9,6],
    [8,5,0,0,1,6,7,2,3],
    [0,0,7,0,8,2,6,5,0],
    [0,0,2,5,0,7,1,8,0]
]